3953
4106
4216
4295
4295
4295
4577
4577
4577
4782
4782
4782
4782
4782
4782
4793
4793
4967
4967
4967
4967
4967
4967
4967
4967
4967
4967
4967
4967
4967
4967
5130
5168
5168
5168
5168
5168
5168
5168
5379
5379
5379
5379
5379
5379
5379
5379
5379
5379
5379
5379
5379
5379
5472
5472
5472
5472
5472
5472
5472
5472
5472
5472
5472
5490
5490
5490
5520
5520
5520
5540
5540
5540
5540
5779
5779
5779
5894
5894
5894
5894
5894
5894
5894
5894
5894
5894
5894
5894
5894
5894
5894
5894
5894
5894
5894
5894
5894
5894
